sat
(:max-memory                   18.14
 :memory                       18.04
 :nlsat-conflicts              4
 :nlsat-decisions              2
 :nlsat-irrational-assignments 1
 :nlsat-propagations           31
 :nlsat-stages                 7
 :num-allocs                   42008
 :rlimit-count                 8805
 :time                         0.01
 :total-time                   0.02)
